c CNF formula generated by generate_input.py
c Number of variables: 25
c Number of clauses: 25
c Clause length: random between 1 and 4
p cnf 25 25
14 -4 -7 0
-18 -25 0
17 0
9 -13 -16 -5 0
19 0
10 -19 0
8 9 0
22 21 3 -16 0
12 -9 -24 -15 0
-2 0
-13 18 -16 0
-9 0
-6 -22 11 0
15 0
-13 16 -9 -2 0
20 -10 4 0
23 0
12 0
4 -19 16 0
-12 -17 0
13 11 0
5 -20 0
-10 23 9 4 0
2 12 0
20 0
